RT is False
Default write of storage_offers_DA.csv just to have a file (but constraint should be inactive)
Reading model...
...model read.
creating competitive generators file...
...competitive generators recorded.
Loading data...
.. day-ahead data with real-time VRE data read.
Compiling instance...
...instance created.
Creating Offer Mitigation (model will solve as dispatch if TRUE)...
Solving...

Welcome to IBM(R) ILOG(R) CPLEX(R) Interactive Optimizer 12.9.0.0
  with Simplex, Mixed Integer & Barrier Optimizers
5725-A06 5725-A29 5724-Y48 5724-Y49 5724-Y54 5724-Y55 5655-Y21
Copyright IBM Corp. 1988, 2019.  All Rights Reserved.

Type 'help' for a list of available commands.
Type 'help' followed by a command name for more
information on commands.

CPLEX> Logfile 'cplex.log' closed.
Logfile 'C:\Users\llavin\Desktop\test919\logs\tmp33tq33j9.cplex.log' open.
CPLEX> New value for parallel optimization mode: -1
CPLEX> New value for mixed integer optimality gap tolerance: 0.01
CPLEX> New value for integrality tolerance: 1e-09
CPLEX> New value for feasibility tolerance: 0.01
CPLEX> New value for deterministic time limit in ticks: 75000
CPLEX> Problem 'C:\Users\llavin\Desktop\test919\logs\tmpaej3vo1a.pyomo.lp' read.
Read time = 0.06 sec. (3.04 ticks)
CPLEX> Problem name         : C:\Users\llavin\Desktop\test919\logs\tmpaej3vo1a.pyomo.lp
Objective sense      : Minimize
Variables            :   26081  [Nneg: 1,  Box: 21616,  Free: 4464]
Objective nonzeros   :    2496
Linear constraints   :   27515  [Less: 14006,  Greater: 4416,  Equal: 9093]
  Nonzeros           :   89219
  RHS nonzeros       :   12271

Variables            : Min LB: -5000.000        Max UB: 1000000.       
Objective nonzeros   : Min   : 15.73158         Max   : 124.0997       
Linear constraints   :
  Nonzeros           : Min   : 0.8500000        Max   : 3000.000       
  RHS nonzeros       : Min   : 0.008333333      Max   : 5000.000       
CPLEX> CPXPARAM_Parallel                                -1
CPXPARAM_Simplex_Tolerances_Feasibility          0.01
CPXPARAM_DetTimeLimit                            75000
CPXPARAM_MIP_Tolerances_MIPGap                   0.01
CPXPARAM_MIP_Tolerances_Integrality              1.0000000000000001e-09
Parallel mode: opportunistic, using up to 32 threads for concurrent optimization.
Tried aggregator 1 time.
LP Presolve eliminated 21377 rows and 15484 columns.
Aggregator did 743 substitutions.
Reduced LP has 5395 rows, 9854 columns, and 31796 nonzeros.
Presolve time = 0.05 sec. (30.20 ticks)
Symmetry aggregator did 5565 additional substitutions.

Iteration log . . .
Iteration:     1   Dual objective     =             0.000000
Perturbation started.
Iteration:   101   Dual objective     =             0.000000
Iteration:   320   Dual objective     =             1.250628
Iteration:   599   Dual objective     =             1.903738
Iteration:   861   Dual objective     =             2.049926
Iteration:  1054   Dual objective     =             2.165011
Iteration:  1326   Dual objective     =             2.214777
Iteration:  1576   Dual objective     =             2.244727
Iteration:  1798   Dual objective     =             2.266489
Iteration:  1998   Dual objective     =          8569.323966
Iteration:  2199   Dual objective     =          8569.338865
Iteration:  2417   Dual objective     =         41960.664039
Iteration:  2675   Dual objective     =         58768.938522
Iteration:  3072   Dual objective     =         63037.403495
Removing perturbation.
Dual superbasis not built.
Using devex.

Primal simplex solved model.


Primal simplex - Optimal:  Objective =  6.3042287418e+04
Solution time =    0.17 sec.  Iterations = 1618 (1141)
Deterministic time = 81.60 ticks  (474.42 ticks/sec)

CPLEX> Solution written to file 'C:\Users\llavin\Desktop\test919\logs\tmp6114ssvv.cplex.sol'.
CPLEX> Exporting results... 
...storage offer mitigation file created
Converting model to MPEC...
...converted
NOTE: initial MIP solve with only storage competitive to get feasible solution
Solving...

Welcome to IBM(R) ILOG(R) CPLEX(R) Interactive Optimizer 12.9.0.0
  with Simplex, Mixed Integer & Barrier Optimizers
5725-A06 5725-A29 5724-Y48 5724-Y49 5724-Y54 5724-Y55 5655-Y21
Copyright IBM Corp. 1988, 2019.  All Rights Reserved.

Type 'help' for a list of available commands.
Type 'help' followed by a command name for more
information on commands.

CPLEX> Logfile 'cplex.log' closed.
Logfile 'C:\Users\llavin\Desktop\test919\logs\tmptazeqdwu.cplex.log' open.
CPLEX> New value for parallel optimization mode: -1
CPLEX> New value for mixed integer optimality gap tolerance: 0.01
CPLEX> New value for integrality tolerance: 1e-09
CPLEX> New value for feasibility tolerance: 0.01
CPLEX> New value for deterministic time limit in ticks: 75000
CPLEX> Problem 'C:\Users\llavin\Desktop\test919\logs\tmpns19p1el.pyomo.lp' read.
Read time = 0.23 sec. (14.78 ticks)
CPLEX> Problem name         : C:\Users\llavin\Desktop\test919\logs\tmpns19p1el.pyomo.lp
Objective sense      : Maximize
Variables            :   53805  [Nneg: 1,  Box: 22000,  Free: 4464,
                                 Binary: 27340]
Objective nonzeros   :    9029
Linear constraints   :  123205  [Less: 41346,  Greater: 59096,  Equal: 22763]
  Nonzeros           :  291753
  RHS nonzeros       :   67425

Variables            : Min LB: -5000.000        Max UB: 1000000.       
Objective nonzeros   : Min   : 0.008333333      Max   : 2500.000       
Linear constraints   :
  Nonzeros           : Min   : 0.008333333      Max   : 1000000.       
  RHS nonzeros       : Min   : 0.008333333      Max   : 1000000.       
CPLEX> CPXPARAM_Parallel                                -1
CPXPARAM_Simplex_Tolerances_Feasibility          0.01
CPXPARAM_DetTimeLimit                            75000
CPXPARAM_MIP_Tolerances_MIPGap                   0.01
CPXPARAM_MIP_Tolerances_Integrality              1.0000000000000001e-09
Tried aggregator 3 times.
MIP Presolve eliminated 88617 rows and 18943 columns.
MIP Presolve added 3378 rows and 0 columns.
MIP Presolve modified 24852 coefficients.
Aggregator did 13008 substitutions.
Reduced MIP has 24958 rows, 21300 columns, and 71180 nonzeros.
Reduced MIP has 8426 binaries, 0 generals, 0 SOSs, and 0 indicators.
Presolve time = 0.30 sec. (173.80 ticks)
Probing fixed 412 vars, tightened 2900 bounds.
Probing time = 1.23 sec. (894.59 ticks)
Tried aggregator 2 times.
MIP Presolve eliminated 927 rows and 824 columns.
MIP Presolve modified 2213 coefficients.
Aggregator did 34 substitutions.
Reduced MIP has 23997 rows, 20442 columns, and 68400 nonzeros.
Reduced MIP has 8014 binaries, 0 generals, 0 SOSs, and 0 indicators.
Presolve time = 0.09 sec. (66.44 ticks)
Probing time = 0.03 sec. (15.83 ticks)
Clique table members: 6397.
MIP emphasis: balance optimality and feasibility.
MIP search method: dynamic search.
Parallel mode: opportunistic, using up to 32 threads.
Root relaxation solution time = 0.39 sec. (296.86 ticks)

        Nodes                                         Cuts/
   Node  Left     Objective  IInf  Best Integer    Best Bound    ItCnt     Gap

      0     0     2936.5528  1575                   2936.5528     6365         
      0     0     2936.5528   617                   Cuts: 627     6659         
      0     0     2936.0624   509                   Cuts: 264     6820         
      0     0     2935.9241   415                   Cuts: 226     6923         
      0     0     2935.9241   387                   Cuts: 103     6987         
      0     0     2935.9241   352                    Cuts: 87     7032         
      0     0     2935.9241   312                    Cuts: 70     7073         
      0     0     2935.9241   300                    Cuts: 40     7088         
      0     0     2935.9241   291                    Cuts: 16     7097         
      0     0     2935.9241   289                     Cuts: 9     7099         
      0     0     2935.9241   286                     Cuts: 5     7100         
      0    29    infeasible                           Cuts: 5     7810         
Elapsed time = 10.81 sec. (6643.18 ticks, tree = 0.02 MB, solutions = 0)
    338    91     1498.3577   276                   2929.3241     8558         
*   535+  237                            0.0000     2929.3241              --- 
   1044   196     2929.3241   267        0.0000     2929.3241    12296     --- 
   2029   310     2929.3241   250        0.0000     2929.3241    14420     --- 
   3506  1422     2929.3241   257        0.0000     2929.3241    16171     --- 
   4660  2593     2929.3241   245        0.0000     2929.3241    16427     --- 
   5432  3630     2763.1142   247        0.0000     2929.3241    16576     --- 
   6013  3976     2929.3241   227        0.0000     2929.3241    16599     --- 
   6487  4649     2929.3241   217        0.0000     2929.3241    16642     --- 
*  6562+ 4061                         2906.8052     2929.3241             0.77%

Clique cuts applied:  8
Cover cuts applied:  1
Implied bound cuts applied:  20
Flow cuts applied:  51
Mixed integer rounding cuts applied:  6
Gomory fractional cuts applied:  29

Root node processing (before b&c):
  Real time             =    9.47 sec. (6626.83 ticks)
Parallel b&c, 32 threads:
  Real time             =   15.97 sec. (5314.47 ticks)
  Sync time (average)   =    0.50 sec.
  Wait time (average)   =    0.00 sec.
                          ------------
Total (root+branch&cut) =   25.44 sec. (11941.30 ticks)

Solution pool: 2 solutions saved.

MIP - Integer optimal, tolerance (0.01/1e-06):  Objective =  2.9068052375e+03
Current MIP best bound =  2.9230136066e+03 (gap = 16.2084, 0.56%)
Solution time =   25.47 sec.  Iterations = 22517  Nodes = 6562 (4062)
Deterministic time = 11941.45 ticks  (468.86 ticks/sec)

CPLEX> Incumbent solution written to file 'C:\Users\llavin\Desktop\test919\logs\tmp8ajvfzwj.cplex.sol'.
CPLEX> NOTE: no warmstart specified for MIP iteration, default behavior is true
NOTE: resolving with all competitive generators using storage-only solution to warmstart
Solving...

Welcome to IBM(R) ILOG(R) CPLEX(R) Interactive Optimizer 12.9.0.0
  with Simplex, Mixed Integer & Barrier Optimizers
5725-A06 5725-A29 5724-Y48 5724-Y49 5724-Y54 5724-Y55 5655-Y21
Copyright IBM Corp. 1988, 2019.  All Rights Reserved.

Type 'help' for a list of available commands.
Type 'help' followed by a command name for more
information on commands.

CPLEX> Logfile 'cplex.log' closed.
Logfile 'C:\Users\llavin\Desktop\test919\logs\tmpc2vmbc3u.cplex.log' open.
CPLEX> New value for parallel optimization mode: -1
CPLEX> New value for mixed integer optimality gap tolerance: 0.01
CPLEX> New value for integrality tolerance: 1e-09
CPLEX> New value for feasibility tolerance: 0.01
CPLEX> New value for deterministic time limit in ticks: 75000
CPLEX> Problem 'C:\Users\llavin\Desktop\test919\logs\tmp4r1ofqs5.pyomo.lp' read.
Read time = 0.23 sec. (14.81 ticks)
CPLEX> MIP start file 'C:\Users\llavin\Desktop\test919\logs\tmpkbugwyq6.cplex.mst' read.
CPLEX> Problem name         : C:\Users\llavin\Desktop\test919\logs\tmp4r1ofqs5.pyomo.lp
Objective sense      : Maximize
Variables            :   54525  [Nneg: 1,  Box: 22720,  Free: 4464,
                                 Binary: 27340]
Objective nonzeros   :    9725
Linear constraints   :  123205  [Less: 41346,  Greater: 59096,  Equal: 22763]
  Nonzeros           :  291753
  RHS nonzeros       :   67425

Variables            : Min LB: -5000.000        Max UB: 1000000.       
Objective nonzeros   : Min   : 0.008333333      Max   : 2500.000       
Linear constraints   :
  Nonzeros           : Min   : 0.008333333      Max   : 1000000.       
  RHS nonzeros       : Min   : 0.008333333      Max   : 1000000.       
CPLEX> CPXPARAM_Parallel                                -1
CPXPARAM_Simplex_Tolerances_Feasibility          0.01
CPXPARAM_DetTimeLimit                            75000
CPXPARAM_MIP_Tolerances_MIPGap                   0.01
CPXPARAM_MIP_Tolerances_Integrality              1.0000000000000001e-09
Warning:  No solution found from 1 MIP starts.
Retaining values of one MIP start for possible repair.
Tried aggregator 3 times.
MIP Presolve eliminated 88617 rows and 19663 columns.
MIP Presolve added 3378 rows and 0 columns.
MIP Presolve modified 24852 coefficients.
Aggregator did 13008 substitutions.
Reduced MIP has 24958 rows, 21300 columns, and 71180 nonzeros.
Reduced MIP has 8426 binaries, 0 generals, 0 SOSs, and 0 indicators.
Presolve time = 0.28 sec. (174.16 ticks)
Probing fixed 412 vars, tightened 2900 bounds.
Probing time = 1.22 sec. (894.59 ticks)
Tried aggregator 2 times.
MIP Presolve eliminated 927 rows and 824 columns.
MIP Presolve modified 2213 coefficients.
Aggregator did 34 substitutions.
Reduced MIP has 23997 rows, 20442 columns, and 68400 nonzeros.
Reduced MIP has 8014 binaries, 0 generals, 0 SOSs, and 0 indicators.
Presolve time = 0.09 sec. (66.45 ticks)
Probing time = 0.03 sec. (15.83 ticks)
Clique table members: 6397.
MIP emphasis: balance optimality and feasibility.
MIP search method: dynamic search.
Parallel mode: opportunistic, using up to 32 threads.
Root relaxation solution time = 0.39 sec. (292.59 ticks)

        Nodes                                         Cuts/
   Node  Left     Objective  IInf  Best Integer    Best Bound    ItCnt     Gap

      0     0   139509.7587  1731                 139509.7587     6243         
      0     0   134414.1621   687                   Cuts: 777     6670         
      0     0   133280.8137   614                   Cuts: 345     6841         
      0     0   133063.8829   558                   Cuts: 250     6939         
      0     0   131352.8904   491                   Cuts: 133     7063         
      0     0   131351.1932   473                    Cuts: 97     7097         
      0     0   131269.9016   462                    Cuts: 63     7119         
      0     0   131269.0679   458                    Cuts: 51     7131         
      0     0   131269.0679   447                    Cuts: 39     7141         
      0     0   131269.0679   447                    Cuts: 34     7145         
Repair heuristic found nothing.
      0    30    infeasible                          Cuts: 38     8622         
Elapsed time = 11.48 sec. (6748.89 ticks, tree = 0.02 MB, solutions = 0)
    224    52    74234.0406   312                 124893.8384    12816         
    640   497    61858.4943   301                 124790.2362    33745         
   1103   529    72074.7004   286                 124790.2362    36503         
   1633   787    17892.8085   285                 124790.2362    40881         
   2287  1388     5245.9887   278                 124790.2362    50012         
   3025  1442    infeasible                       124790.2362    51349         
   3663  2007    27035.1545   293                 124790.2362    63788         
   4282  2398    13180.0238   245                 124790.2362    69396         
   5012  2607   -35262.8023   260                 124790.2362    72081         
   9159  4946    15133.9273   173                 124790.2362    80788         
Elapsed time = 30.08 sec. (9851.42 ticks, tree = 36.90 MB, solutions = 1)
*  9761+ 4759                        14699.7743   124790.2362           748.93%
  12199  5580        cutoff          16956.6827    66301.7578   103422  291.01%
  12758    71    24326.5658    71    16956.6827    51551.9587   105650  204.02%
  13594    97    17308.1700    49    16956.6827    51551.9587   105903  204.02%
  14673  1011    26997.0359    68    16956.6827    51551.9587   115484  204.02%
  16122  1772    34591.0253    82    16956.6827    47388.0917   129604  179.47%
  17566  1841    37229.5510    89    23895.0456    47388.0917   130028   98.32%
  19009  2441    38020.5571    96    25165.2064    46388.4924   135985   84.34%
  20631  3803    36254.2607    87    25165.2064    42152.8318   177776   67.50%
  22647  2890    26297.1679    90    25165.2064    42152.8318   156832   67.50%
Elapsed time = 90.28 sec. (23557.76 ticks, tree = 22.11 MB, solutions = 10)
  24887  2084    36851.6734    86    25165.2064    42152.8318   141697   67.50%
  27165  3591    35053.8271    89    25165.2064    42152.8318   173490   67.50%
  29444  2644    32864.7978    94    25165.2064    42152.8318   150866   67.50%
  31885  6398    36986.2055    91    25165.2064    42152.8318   218535   67.50%
  34204  3125    35669.6653    97    25165.2064    42152.8318   162269   67.50%
  36288  3757    37796.6272    98    25165.2064    42152.8318   171259   67.50%
  38310  6519    25287.2052    98    25165.2064    42152.8318   220649   67.50%
  40083  4618    36012.2790    85    25165.2064    42152.8318   191217   67.50%
  41627  6495    35021.5392    85    25165.2064    42152.8318   217979   67.50%
  43237  4546    33557.3462    91    25165.2064    42152.8318   192438   67.50%
Elapsed time = 135.92 sec. (33100.48 ticks, tree = 36.51 MB, solutions = 10)
  44933  7798        cutoff          25165.2064    42152.8318   241713   67.50%
  46469  9920    37269.1874    87    25165.2064    42152.8318   279293   67.50%
  47907  6703    infeasible          25165.2064    42152.8318   224854   67.50%
  49638  9468        cutoff          25165.2064    42152.8318   275892   67.50%
  51358  7907    35480.9131    88    25165.2064    42152.8318   245975   67.50%
  52973  7952    36554.1145    89    25165.2064    42152.8318   246629   67.50%
  54564 11658        cutoff          25165.2064    42152.8318   313823   67.50%
  56022 13884    29962.8134    91    25165.2064    42152.8318   362495   67.50%
  57636 10108    37316.4689    86    25165.2064    42152.8318   284537   67.50%
  59044  7025    36817.5676    88    25165.2064    42152.8318   225025   67.50%
Elapsed time = 171.17 sec. (42646.98 ticks, tree = 57.07 MB, solutions = 10)
  60387 12898    28634.2416    98    25165.2064    42152.8318   342087   67.50%
  61768 12115        cutoff          25165.2064    42152.8318   325975   67.50%
  62939  6211    infeasible          25165.2064    42152.8318   219554   67.50%
  63924 11557    36988.4071    90    25165.2064    42152.8318   311490   67.50%
  64784 11605    34955.5974    83    25165.2064    42152.8318   312320   67.50%
  65562 13027    25818.2474    88    25165.2064    42152.8318   345355   67.50%
  66280 13494    36926.8553    90    25165.2064    42152.8318   353909   67.50%
  67021 11857    37215.0865    87    25165.2064    42152.8318   322459   67.50%
  67723 12753    36986.0440    83    25165.2064    42152.8318   343652   67.50%
  68437 14768    36543.8455    85    25165.2064    42152.8318   384704   67.50%
Elapsed time = 184.45 sec. (52197.08 ticks, tree = 119.34 MB, solutions = 10)
  69076 14796    35718.2848    81    25165.2064    42152.8318   385751   67.50%
  69509 13193        cutoff          25165.2064    42152.8318   350591   67.50%
  69920 13222    36653.8462    86    25165.2064    42152.8318   351390   67.50%
  70267 13661    36879.2223    85    25165.2064    42152.8318   358728   67.50%
  70596 13278    35268.9856    85    25165.2064    42152.8318   353033   67.50%
  70982 14873    36637.7105    83    25165.2064    42152.8318   389908   67.50%
  71317 14895    36622.3968    87    25165.2064    42152.8318   390731   67.50%
  71621 13746    36788.0461    83    25165.2064    42152.8318   362405   67.50%
  72021 14434        cutoff          25165.2064    42152.8318   378310   67.50%
  72414 11982        cutoff          25165.2064    42152.8318   320619   67.50%
Elapsed time = 195.25 sec. (61754.56 ticks, tree = 97.02 MB, solutions = 10)
  72780 15002        cutoff          25165.2064    42152.8318   394002   67.50%
  73036 14512    36617.7503    84    25165.2064    42152.8318   380912   67.50%
  73254 13945        cutoff          25165.2064    42152.8318   365216   67.50%
  73372 14579    36612.8061    86    25165.2064    42152.8318   382544   67.50%
  73463 14629        cutoff          25165.2064    42152.8318   383343   67.50%
  73513 13949        cutoff          25165.2064    42152.8318   365236   67.50%
  73524 13950    25529.1259    11    25165.2064    42152.8318   365238   67.50%
  73534 13949        cutoff          25165.2064    42152.8318   365226   67.50%
  73548 13705    25693.4261    11    25165.2064    42152.8318   359659   67.50%
  73556 13951        cutoff          25165.2064    42152.8318   365237   67.50%
Elapsed time = 200.55 sec. (72046.61 ticks, tree = 112.80 MB, solutions = 10)
  73564 13946        cutoff          25165.2064    42152.8318   365222   67.50%
  73569 13949    25693.4261    13    25165.2064    42152.8318   365233   67.50%

GUB cover cuts applied:  1
Clique cuts applied:  6
Cover cuts applied:  41
Implied bound cuts applied:  18
Flow cuts applied:  378
Mixed integer rounding cuts applied:  49
Gomory fractional cuts applied:  72

Root node processing (before b&c):
  Real time             =    9.92 sec. (6739.94 ticks)
Parallel b&c, 32 threads:
  Real time             =  191.02 sec. (68394.40 ticks)
  Sync time (average)   =    2.98 sec.
  Wait time (average)   =    0.19 sec.
                          ------------
Total (root+branch&cut) =  200.94 sec. (75134.34 ticks)

Solution pool: 10 solutions saved.

MIP - Deterministic time limit exceeded, integer feasible:  Objective =  2.5165206395e+04
Current MIP best bound =  4.2152831758e+04 (gap = 16987.6, 67.50%)
Solution time =  200.97 sec.  Iterations = 729126  Nodes = 73571 (27950)
Deterministic time = 75134.50 ticks  (373.86 ticks/sec)

CPLEX> Incumbent solution written to file 'C:\Users\llavin\Desktop\test919\logs\tmprb4ux_7i.cplex.sol'.
CPLEX> Exporting results... 
